16  570581
1   5   1    9    21    39    58    
2   5   66    67    79    80    74    
3   5   2    10    23    42    61    
4   5   7    32    33    72    60    
5   5   76    17    30    40    62    
6   5   16    52    14    44    63    
7   5   27    53    69    46    65    
8   5   71    38    28    18    15    
9   5   31    43    64    22    68    
10   6   36    57    34    49    29    45    
11   5   3    11    24    47    70    
12   5   41    51    54    59    73    
13   5   4    12    25    48    75    
14   5   5    13    26    50    77    
15   5   6    19    35    55    78    
16   4   8    20    37    56    

